
List of user-set options:

                                    Name   Value                used
                           compl_inf_tol = 1                     yes
                         constr_viol_tol = 1                     yes
                            dual_inf_tol = 1000                  yes
                           linear_solver = ma97                  yes
                              ma86_small = 1e-30                  no
                                  ma86_u = 0.0001                 no
                              ma97_order = best                  yes
                              ma97_small = 1e-30                 yes
                            ma97_switch1 = at_start              yes
                            ma97_switch2 = od_hd_reuse           yes
                                  ma97_u = 1e-06                 yes
                               ma97_umax = 0.5                   yes
                                max_iter = 1000                  yes
                    max_refinement_steps = 20                    yes
                    min_refinement_steps = 5                     yes
                                 mu_init = 1e-06                 yes
           mu_superlinear_decrease_power = 1.25                  yes
                   nlp_scaling_min_value = 1e-08                 yes
                        option_file_name = Preset_Case_745_pf.opt  yes
                             output_file = ./tmp/Preset_Case_745_pf.output  yes
                      print_user_options = yes                   yes
        required_infeasibility_reduction = 1                      no
                                     tol = 1e-08                 yes
                   warm_start_bound_frac = 1e-20                 yes
                   warm_start_bound_push = 1e-20                 yes
                   warm_start_init_point = yes                   yes
              warm_start_mult_bound_push = 1e-20                 yes
                warm_start_mult_init_max = 1e+40                 yes
             warm_start_slack_bound_frac = 1e-20                 yes
             warm_start_slack_bound_push = 1e-20                 yes

******************************************************************************
This program contains Ipopt, a library for large-scale nonlinear optimization.
 Ipopt is released as open source code under the Eclipse Public License (EPL).
         For more information visit http://projects.coin-or.org/Ipopt
******************************************************************************

This is Ipopt version 3.12.10, running with linear solver ma97.

Number of nonzeros in equality constraint Jacobian...:   123443
Number of nonzeros in inequality constraint Jacobian.:      213
Number of nonzeros in Lagrangian Hessian.............:    49069

Total number of variables............................:    31591
                     variables with only lower bounds:    12912
                variables with lower and upper bounds:    15130
                     variables with only upper bounds:        0
Total number of equality constraints.................:    31483
Total number of inequality constraints...............:       25
        inequality constraints with only lower bounds:        4
   inequality constraints with lower and upper bounds:        0
        inequality constraints with only upper bounds:       21

iter    objective    inf_pr   inf_du lg(mu)  ||d||  lg(rg) alpha_du alpha_pr  ls
   0 -5.1219513e+00 4.03e-03 1.02e+00  -6.0 0.00e+00    -  0.00e+00 0.00e+00   0
   1 -5.1211784e+00 3.61e-02 1.02e+00  -6.0 4.06e+05    -  1.13e-04 9.64e-05h  5
   2 -5.1227677e+00 3.60e-02 1.65e+01  -6.0 1.17e+04    -  7.43e-02 1.96e-03h  1
   3 -5.1231666e+00 8.03e+00 1.66e+01  -6.0 1.83e+06    -  7.79e-04 3.32e-04f  1
   4 -5.2063988e+00 2.34e+01 1.47e+02  -6.0 8.46e+03    -  1.39e-01 1.04e-01h  1
   5 -5.3261086e+00 4.98e+01 4.38e+02  -6.0 6.86e+03    -  2.00e-01 1.81e-01h  1
   6 -5.3274904e+00 4.97e+01 4.37e+02  -6.0 4.06e+03    -  8.26e-03 2.94e-03h  1
   7 -5.3327102e+00 4.92e+01 4.35e+02  -6.0 5.55e+03    -  4.83e-02 1.12e-02f  1
   8 -5.3443699e+00 4.81e+01 4.40e+02  -6.0 3.98e+03    -  2.27e-01 2.55e-02h  1
   9 -5.5200675e+00 4.16e+01 1.09e+03  -6.0 2.99e+03    -  1.09e-01 3.73e-01h  1
iter    objective    inf_pr   inf_du lg(mu)  ||d||  lg(rg) alpha_du alpha_pr  ls
  10 -5.5440498e+00 3.78e+01 1.00e+03  -6.0 2.31e+03    -  5.84e-01 1.28e-01h  1
  11 -5.5113344e+00 2.38e-01 9.56e+01  -6.0 1.27e+01  -4.0 2.66e-05 1.00e+00h  1
  12 -5.5125529e+00 1.63e-01 7.34e+01  -6.0 6.35e+00  -4.5 1.74e-01 3.16e-01h  1
  13 -5.5238778e+00 4.46e-01 5.81e+01  -6.0 1.85e+01  -5.0 2.09e-01 1.00e+00f  1
  14 -5.6434631e+00 5.88e+00 1.12e+03  -6.0 4.61e+01  -5.4 1.33e-01 1.00e+00h  1
  15 -5.6013665e+00 8.07e-02 2.53e+01  -6.0 3.64e+01  -5.9 4.99e-01 1.00e+00h  1
  16 -5.6056535e+00 7.36e-02 5.91e+00  -6.0 4.92e+01  -6.4 7.65e-01 1.00e+00h  1
  17 -5.6152237e+00 3.96e-01 5.58e+00  -6.0 1.14e+02  -6.9 1.00e+00 1.00e+00h  1
  18 -5.6247164e+00 1.41e+00 6.42e+00  -6.0 2.93e+02  -7.3 9.02e-01 7.07e-01h  1
  19 -5.6322773e+00 4.47e-01 6.00e+00  -6.0 6.83e+02  -7.8 1.00e+00 1.00e+00H  1
iter    objective    inf_pr   inf_du lg(mu)  ||d||  lg(rg) alpha_du alpha_pr  ls
  20 -5.6393398e+00 6.63e-01 2.41e+03  -6.0 6.48e+02  -7.4 3.17e-01 2.31e-01h  1
  21 -5.6480050e+00 1.22e+00 4.13e+04  -6.0 8.54e+02  -7.9 5.41e-01 1.77e-01h  1
  22 -5.6586193e+00 4.18e+00 7.13e+03  -6.0 1.33e+03  -8.3 1.46e-02 3.63e-01h  1
  23 -5.6739513e+00 1.10e+00 4.09e+05  -6.0 1.96e+02  -6.1 1.70e-01 1.00e+00h  1
  24 -5.6765345e+00 4.51e-02 2.47e+02  -6.0 1.34e+01  -5.7 1.00e+00 1.00e+00h  1
  25 -5.6797172e+00 6.17e-02 4.69e+01  -6.0 4.67e+01  -6.2 1.00e+00 1.00e+00h  1
  26 -5.6935201e+00 6.41e-01 1.80e+01  -6.0 1.51e+02  -6.6 1.00e+00 1.00e+00h  1
  27 -5.7098900e+00 1.04e+00 1.42e+02  -6.0 3.02e+02  -7.1 1.00e+00 5.45e-01h  1
  28 -5.7146622e+00 5.60e-01 1.99e+03  -6.0 2.27e+02  -7.6 4.92e-01 8.31e-01h  1
  29 -5.7251043e+00 1.03e+00 9.64e+02  -6.0 4.32e+02  -8.1 4.87e-01 5.15e-01h  1
iter    objective    inf_pr   inf_du lg(mu)  ||d||  lg(rg) alpha_du alpha_pr  ls
  30 -5.7319164e+00 3.82e+00 2.61e+02  -6.0 6.63e+02  -8.5 6.18e-01 7.28e-01h  1
  31 -5.7339274e+00 4.58e+00 2.13e+03  -6.0 9.30e+02  -9.0 5.86e-01 7.59e-01h  1
  32 -5.7338961e+00 4.56e+00 2.13e+03  -6.0 4.25e+03    -  1.63e-01 4.69e-03h  4
  33 -5.7339846e+00 4.10e+00 1.89e+03  -6.0 3.58e+03    -  2.84e-01 1.19e-01h  1
  34 -5.7339849e+00 3.91e+00 1.75e+03  -6.0 2.11e+03    -  6.11e-01 7.66e-02h  1
  35 -5.7337250e+00 1.14e+01 1.02e+03  -6.0 1.69e+03    -  9.20e-01 4.19e-01h  1
  36 -5.7336140e+00 1.04e+01 9.15e+02  -6.0 1.22e+03    -  1.49e-02 1.04e-01h  3
  37 -5.7336067e+00 1.04e+01 9.09e+02  -6.0 2.79e+03    -  4.85e-01 8.40e-03h  5
  38 -5.7336064e+00 1.04e+01 9.09e+02  -6.0 2.27e+03    -  7.16e-01 3.15e-04h 12
  39 -5.7336063e+00 1.04e+01 9.09e+02  -6.0 2.22e+03    -  1.00e+00 8.97e-05h 14
iter    objective    inf_pr   inf_du lg(mu)  ||d||  lg(rg) alpha_du alpha_pr  ls
  40 -5.7336063e+00 1.04e+01 9.09e+02  -6.0 2.22e+03    -  3.69e-01 4.20e-05h 15
  41 -5.7334354e+00 1.12e+01 7.46e+02  -6.0 2.21e+03    -  1.00e+00 1.79e-01h  3
  42 -5.7332904e+00 1.27e+01 6.28e+02  -6.0 2.76e+03    -  6.65e-01 1.58e-01h  3
  43 -5.7332308e+00 1.26e+01 5.87e+02  -6.0 3.28e+03    -  1.00e+00 6.65e-02h  4
  44 -5.7331652e+00 1.25e+01 5.54e+02  -6.0 3.10e+03    -  3.07e-01 7.11e-02h  4
  45 -5.7318089e+00 7.26e+00 9.26e+03  -6.0 1.44e+03    -  4.00e-01 1.00e+00H  1
  46 -5.7319404e+00 1.51e+01 5.99e+01  -6.0 1.00e+03    -  8.76e-01 1.00e+00h  1
  47 -5.7318800e+00 1.90e-01 6.25e-01  -6.0 1.25e+02    -  1.00e+00 1.00e+00h  1
  48 -5.7318716e+00 7.47e-03 5.68e-03  -6.0 2.18e+01    -  1.00e+00 1.00e+00h  1
  49 -5.7318715e+00 4.28e-06 1.58e-06  -6.0 5.33e-01    -  1.00e+00 1.00e+00h  1
iter    objective    inf_pr   inf_du lg(mu)  ||d||  lg(rg) alpha_du alpha_pr  ls
  50 -5.7320997e+00 6.11e+00 7.59e+01  -7.5 8.15e+02    -  5.94e-01 7.71e-01h  1
  51 -5.7320712e+00 1.61e+00 1.44e+01  -7.5 2.34e+02    -  9.03e-01 8.43e-01h  1
  52 -5.7320581e+00 2.19e-02 2.51e-01  -7.5 3.53e+01    -  1.00e+00 1.00e+00h  1
  53 -5.7320578e+00 1.03e-05 5.93e-06  -7.5 8.20e-01    -  1.00e+00 1.00e+00h  1
  54 -5.7320578e+00 1.80e-10 3.04e-11  -7.5 3.05e-04    -  1.00e+00 1.00e+00h  1
  55 -5.7320595e+00 9.21e-03 8.43e-01  -9.0 2.86e+01    -  9.27e-01 8.35e-01h  1
  56 -5.7320596e+00 3.68e-04 3.55e-03  -9.0 4.76e+00    -  1.00e+00 1.00e+00h  1
  57 -5.7320596e+00 4.33e-10 5.85e-09  -9.0 5.50e-03    -  1.00e+00 1.00e+00h  1

Number of Iterations....: 57

                                   (scaled)                 (unscaled)
Objective...............:  -4.4781715971613085e+00   -5.7320596443664753e+00
Dual infeasibility......:   5.8492085561718239e-09    7.4869869518999341e-09
Constraint violation....:   2.9866706583887836e-10    4.3291947804391384e-10
Complementarity.........:   1.4572338175923699e-09    1.8652592865182336e-09
Overall NLP error.......:   5.8492085561718239e-09    7.4869869518999341e-09


Number of objective function evaluations             = 136
Number of objective gradient evaluations             = 58
Number of equality constraint evaluations            = 136
Number of inequality constraint evaluations          = 136
Number of equality constraint Jacobian evaluations   = 58
Number of inequality constraint Jacobian evaluations = 58
Number of Lagrangian Hessian evaluations             = 57
Total CPU secs in IPOPT (w/o function evaluations)   =    139.471
Total CPU secs in NLP function evaluations           =      2.756

EXIT: Optimal Solution Found.
